ssat_solver_solve2
#level: 2
Abc_NtkNodeNum(s->pNtk): 475  , BDD limit: 10240
level 1: 20 element
Exist
existence_eliminate_scope
Abc_NtkIsBddLogic(pNtk): 0
Abc_NtkIsStrash(pNtk): 1
existence_eliminate_scope_aig
exist by BDD failed
Abc_NtkNodeNum(s->pNtk): 16273403  , BDD limit: 19528083
Build BDD success
level 0: 20 element
Random
c ssat solving in ABC
#var: 40
s SATISFIABLE
  > Upper bound = 4.547195e-01
  > Lower bound = 4.547195e-01
FINISHED CPU 266.43 MEM 0 MAXMEM 3104660 STALE 0 MAXMEM_RSS 2925572
<time name="ALL">266500</time>
real 266.59
user 307.02
sys 119.05
